\ MIP written by GAMS Convert at 05/31/23 08:42:33
\
\ Equation counts
\     Total        E        G        L        N        X        C        B
\         2        1        0        1        0        0        0        0
\
\ Variable counts
\                  x        b        i      s1s      s2s       sc       si
\     Total     cont   binary  integer     sos1     sos2    scont     sint
\        69        1       68        0        0        0        0        0
\ FX      0
\
\ Nonzero counts
\     Total    const       NL
\       137      137        0

Minimize
 obj: -77 b1 - 44 b2 - 15 b3 - 67 b4 - 75 b5 - 91 b6 - 2 b7 - 46 b8 - 16 b9 - 68
     b10 - 35 b11 - 53 b12 - 84 b13 - 85 b14 - 100 b15 - 43 b16 - 30 b17 - 24
     b18 - 17 b19 - 54 b20 - 10 b21 - 4 b22 - 32 b23 - 66 b24 - 49 b25 - 60 b26
     - 74 b27 - 57 b28 - 45 b29 - 18 b30 - 62 b31 - 79 b32 - 55 b33 - 11 b34
     - 86 b35 - 64 b36 - 78 b37 - 37 b38 - 81 b39 - 22 b40 - 19 b41 - 26 b42
     - 38 b43 - 52 b44 - 72 b45 - 20 b46 - 23 b47 - 47 b48 - 59 b49 - 82 b50
     - 27 b51 - 28 b52 - 25 b53 - 29 b54 - 96 b55 - 83 b56 - 31 b57 - 13 b58
     - 51 b59 - 40 b60 - 58 b61 - 70 b62 - 92 b63 - 88 b64 - 8 b65 - b66 - 71
     b67 - 36 b68

Subject To
 e2: 95 b1 + 70 b2 + 85 b3 + 31 b4 + 100 b5 + b6 + 7 b7 + 53 b8 + 35 b9 + 11
     b10 + 64 b11 + 26 b12 + 4 b13 + 34 b14 + 36 b15 + 22 b16 + 27 b17 + 66 b18
     + 61 b19 + 40 b20 + 12 b21 + 21 b22 + 72 b23 + 83 b24 + 24 b25 + 84 b26
     + 67 b27 + 56 b28 + 37 b29 + 15 b30 + 52 b31 + 74 b32 + 43 b33 + 18 b34
     + 71 b35 + 28 b36 + 20 b37 + 99 b38 + 46 b39 + 32 b40 + 54 b41 + 78 b42
     + 62 b43 + 76 b44 + 63 b45 + 90 b46 + 17 b47 + 86 b48 + 68 b49 + 82 b50
     + 92 b51 + 55 b52 + 38 b53 + 75 b54 + 19 b55 + 14 b56 + 60 b57 + 87 b58
     + 94 b59 + 49 b60 + 33 b61 + 29 b62 + 10 b63 + 23 b64 + 73 b65 + 41 b66
     + 13 b67 + 44 b68 <= 2677

Bounds
 0 <= b1 <= 1
 0 <= b2 <= 1
 0 <= b3 <= 1
 0 <= b4 <= 1
 0 <= b5 <= 1
 0 <= b6 <= 1
 0 <= b7 <= 1
 0 <= b8 <= 1
 0 <= b9 <= 1
 0 <= b10 <= 1
 0 <= b11 <= 1
 0 <= b12 <= 1
 0 <= b13 <= 1
 0 <= b14 <= 1
 0 <= b15 <= 1
 0 <= b16 <= 1
 0 <= b17 <= 1
 0 <= b18 <= 1
 0 <= b19 <= 1
 0 <= b20 <= 1
 0 <= b21 <= 1
 0 <= b22 <= 1
 0 <= b23 <= 1
 0 <= b24 <= 1
 0 <= b25 <= 1
 0 <= b26 <= 1
 0 <= b27 <= 1
 0 <= b28 <= 1
 0 <= b29 <= 1
 0 <= b30 <= 1
 0 <= b31 <= 1
 0 <= b32 <= 1
 0 <= b33 <= 1
 0 <= b34 <= 1
 0 <= b35 <= 1
 0 <= b36 <= 1
 0 <= b37 <= 1
 0 <= b38 <= 1
 0 <= b39 <= 1
 0 <= b40 <= 1
 0 <= b41 <= 1
 0 <= b42 <= 1
 0 <= b43 <= 1
 0 <= b44 <= 1
 0 <= b45 <= 1
 0 <= b46 <= 1
 0 <= b47 <= 1
 0 <= b48 <= 1
 0 <= b49 <= 1
 0 <= b50 <= 1
 0 <= b51 <= 1
 0 <= b52 <= 1
 0 <= b53 <= 1
 0 <= b54 <= 1
 0 <= b55 <= 1
 0 <= b56 <= 1
 0 <= b57 <= 1
 0 <= b58 <= 1
 0 <= b59 <= 1
 0 <= b60 <= 1
 0 <= b61 <= 1
 0 <= b62 <= 1
 0 <= b63 <= 1
 0 <= b64 <= 1
 0 <= b65 <= 1
 0 <= b66 <= 1
 0 <= b67 <= 1
 0 <= b68 <= 1

Binaries
 b1 b2 b3 b4 b5 b6 b7 b8 b9 b10 b11 b12 b13 b14 b15 b16 b17 b18 b19 b20 b21 b22
    b23 b24 b25 b26 b27 b28 b29 b30 b31 b32 b33 b34 b35 b36 b37 b38 b39 b40
    b41 b42 b43 b44 b45 b46 b47 b48 b49 b50 b51 b52 b53 b54 b55 b56 b57 b58
    b59 b60 b61 b62 b63 b64 b65 b66 b67 b68

End
